c Output_time 26.03.2020 18:15:30_+0100 1585242930198534265
c ** Program information **
c program_name                          "QBRG_debug"
c version                               "0.3.20"
c date                                  "25.3.2020"
c gid_id                                "673970833836058123f633335630c185360d632e"
c author                                "Oliver Kullmann"
c url                                   "https://github.com/OKullmann/oklibrary/blob/master/Satisfiability/Transformers/Generators/Random/QBRG.cpp"
c ** Machine information **
c machine_name                          "chyna-Lenovo-G50-70"
c bogomips                              3791.08
c ** Compilation information **
c compiler_version                      "g++ 7.5.0"
c compilation_date                      "Mar_26_2020 11:16:30"
c compilation_options                   "--std=c++17 -pedantic -fmax-errors=5 -Wall -Wextra -g -D_GLIBCXX_DEBUG"
c NDEBUG                                0
c OPTIMIZE                              0
c ** Parameters **
c command-line                          "./QBRG_debug" "a40 e40 a40 40" "587*1,1|2-2,1|3-3,1|4-4,1" "" "1,t" ""
c output                                "QuBlRaGe_160_587_1585242930198359860.qdimacs"
c options                               "filtered,renamed"
c num_quantifier_blocks                 4
c  quantifier_blocks                    1:a1-40 2:e41-80 3:a81-120 4:e121-160
c num_clause-blocks                     1
c  clause-blocks                        587 * {1-40,1,1/2} | {41-80,1,1/2} | {81-120,1,1/2} | {121-160,1,1/2}
c num_e-seeds                           37+2=39
c  e-seeds                              1 0 1 0 5 160 2 40 0 40 1 40 0 40 1 587 4 1 1 1 1 2 2 2 1 1 2 3 3 1 1 2 4 4 1 1 2 1 1585242930198358901
p cnf 160 587
a 1 2 3 4 5 6 7 8 9 10 11 12 13 14 15 16 17 18 19 20 21 22 23 24 25 26 27 28 29 30 31 32 33 34 35 36 37 38 39 40 0
e 41 42 43 44 45 46 47 48 49 50 51 52 53 54 55 56 57 58 59 60 61 62 63 64 65 66 67 68 69 70 71 72 73 74 75 76 77 78 79 80 0
a 81 82 83 84 85 86 87 88 89 90 91 92 93 94 95 96 97 98 99 100 101 102 103 104 105 106 107 108 109 110 111 112 113 114 115 116 117 118 119 120 0
e 121 122 123 124 125 126 127 128 129 130 131 132 133 134 135 136 137 138 139 140 141 142 143 144 145 146 147 148 149 150 151 152 153 154 155 156 157 158 159 160 0
-20 54 83 -121 0
35 49 88 -121 0
-8 -45 -96 -121 0
27 80 -102 -121 0
-14 -46 -105 -121 0
40 -78 107 -121 0
40 41 -110 -121 0
-24 -78 -81 121 0
-10 57 82 121 0
-6 -77 84 121 0
-15 -41 -93 121 0
-4 -80 100 121 0
33 44 110 121 0
-24 48 -89 -122 0
35 80 101 -122 0
-36 -73 -105 -122 0
35 56 -88 122 0
-32 48 -91 122 0
-11 70 96 122 0
19 -49 97 122 0
-40 53 -101 122 0
-15 55 108 122 0
-1 -48 117 122 0
28 53 117 122 0
22 52 119 122 0
20 59 -82 -123 0
-10 70 -85 -123 0
-38 41 -92 -123 0
-21 55 92 -123 0
-27 -42 94 -123 0
31 -68 -97 -123 0
13 -42 -106 -123 0
13 -70 107 -123 0
24 -78 109 -123 0
9 -59 -112 -123 0
37 73 117 -123 0
17 -51 -98 123 0
-7 59 -105 123 0
-27 50 -107 123 0
22 54 114 123 0
4 -79 114 123 0
-9 -60 -118 123 0
-40 -75 87 -124 0
-28 -57 93 -124 0
-18 60 103 -124 0
14 48 -104 -124 0
-20 48 110 -124 0
-4 44 -116 -124 0
-2 59 95 124 0
17 75 -99 124 0
3 -64 -103 124 0
-1 -75 -104 124 0
-12 -52 -107 124 0
-19 48 -116 124 0
2 61 -116 124 0
-33 -55 118 124 0
-28 -68 -88 -125 0
6 -42 88 -125 0
6 -48 -91 -125 0
-23 -45 -103 -125 0
39 -79 92 125 0
3 -47 -93 125 0
4 79 -93 125 0
34 -44 103 125 0
-14 -79 -105 125 0
-6 61 -109 125 0
-22 80 109 125 0
21 57 115 125 0
-13 -45 120 125 0
5 45 -81 -126 0
26 -48 -82 -126 0
11 42 -100 -126 0
-28 74 -103 -126 0
-36 -63 105 -126 0
-26 77 107 -126 0
7 48 -112 -126 0
33 73 -114 -126 0
-23 -59 -93 126 0
30 41 -107 126 0
-23 -47 -119 126 0
6 -59 -82 -127 0
-15 57 -96 -127 0
1 80 103 -127 0
-4 -59 105 -127 0
15 -55 -107 -127 0
-24 -53 107 -127 0
9 52 -108 -127 0
25 57 118 -127 0
-34 59 -84 127 0
22 48 -85 127 0
-37 72 -87 127 0
17 64 -89 127 0
-34 70 -94 127 0
-34 -62 -96 127 0
31 -66 -101 127 0
-24 63 -110 127 0
6 -49 91 -128 0
8 -42 95 -128 0
-3 -45 96 -128 0
18 46 96 -128 0
-18 52 -105 -128 0
21 -69 -106 -128 0
25 -61 108 -128 0
-20 -56 120 -128 0
29 77 -86 128 0
-26 -45 93 128 0
-35 78 -98 128 0
29 52 101 128 0
-16 -69 110 128 0
17 72 -117 128 0
17 73 -87 -129 0
21 -77 -93 -129 0
-27 -69 93 -129 0
31 -49 -96 -129 0
20 -54 96 -129 0
-31 55 -98 -129 0
8 77 -111 -129 0
-22 56 117 -129 0
6 -61 -83 129 0
39 -71 -94 129 0
-36 43 95 129 0
11 50 102 129 0
-1 70 -105 129 0
39 -46 105 129 0
24 45 -108 129 0
21 48 -112 129 0
16 58 -116 129 0
5 67 116 129 0
33 -42 83 -130 0
27 -45 -86 -130 0
-31 -49 89 -130 0
23 -43 96 -130 0
19 -71 -97 -130 0
7 -43 98 -130 0
-21 44 -103 -130 0
1 74 105 -130 0
37 -56 108 -130 0
-25 -77 -116 -130 0
21 -57 -83 130 0
16 52 86 130 0
-25 -64 -91 130 0
-35 57 -93 130 0
17 -51 96 130 0
-7 -79 -101 130 0
-1 -60 102 130 0
-33 56 107 130 0
37 -73 -110 130 0
18 74 114 130 0
-6 -46 -116 130 0
11 59 118 130 0
-25 -70 82 -131 0
-21 56 -88 -131 0
15 70 100 -131 0
9 77 101 -131 0
-30 52 102 -131 0
-17 64 -83 131 0
37 -72 83 131 0
20 -75 -93 131 0
2 57 -95 131 0
-34 -56 97 131 0
6 71 -107 131 0
3 -48 110 131 0
-39 49 -119 131 0
4 68 -88 -132 0
8 75 -97 -132 0
-9 45 88 132 0
-35 66 93 132 0
35 69 -94 132 0
-35 57 98 132 0
-1 -51 99 132 0
13 57 -103 132 0
16 65 -103 132 0
-24 -61 112 132 0
3 50 114 132 0
-13 -48 116 132 0
12 -64 -117 132 0
2 75 119 132 0
-37 58 -85 -133 0
-28 73 89 -133 0
23 49 -90 -133 0
26 80 -101 -133 0
18 -75 -103 -133 0
-3 -56 104 -133 0
-24 72 108 -133 0
-15 72 -114 -133 0
16 76 -117 -133 0
-6 53 86 133 0
11 41 94 133 0
-20 65 98 133 0
-28 -46 102 133 0
37 47 -105 133 0
-29 -79 -108 133 0
-22 -74 113 133 0
4 55 -116 133 0
38 53 -83 -134 0
-9 77 -92 134 0
39 72 -93 134 0
22 -48 94 134 0
-23 50 -107 134 0
-7 65 -110 134 0
-36 75 111 134 0
7 -48 -117 134 0
14 54 -118 134 0
-14 76 81 -135 0
-6 77 -84 -135 0
39 56 84 -135 0
-12 51 87 -135 0
-24 45 -88 -135 0
-26 74 -88 -135 0
-22 -74 90 -135 0
-33 -51 102 -135 0
-20 -58 -104 -135 0
20 73 -112 -135 0
24 60 118 -135 0
-8 44 -89 135 0
-22 55 102 135 0
16 -50 -104 135 0
-26 -78 -106 135 0
-9 68 -83 -136 0
10 66 84 -136 0
-27 -57 85 -136 0
3 -66 -94 -136 0
18 64 100 -136 0
-35 -41 -101 -136 0
16 -49 112 -136 0
-31 -71 -81 136 0
-20 69 84 136 0
-38 -72 -95 136 0
23 71 97 136 0
25 77 -98 136 0
-26 -67 98 136 0
-10 -48 104 136 0
-40 70 -113 136 0
-35 -75 -90 -137 0
25 57 -99 -137 0
-16 -43 100 -137 0
2 46 105 -137 0
5 71 -115 -137 0
2 -68 -118 -137 0
25 57 -89 137 0
39 -60 -94 137 0
-13 -60 -95 137 0
40 45 97 137 0
1 -43 100 137 0
-39 74 105 137 0
29 73 112 137 0
-22 71 -88 -138 0
31 59 88 -138 0
-2 -51 92 -138 0
12 -52 102 -138 0
28 58 -109 -138 0
26 74 -114 -138 0
-1 73 115 -138 0
6 -41 119 -138 0
10 -59 -82 138 0
-11 76 85 138 0
-2 47 89 138 0
-13 -41 94 138 0
-24 62 95 138 0
32 -78 -96 138 0
24 72 -104 138 0
25 45 110 138 0
-8 -57 119 138 0
-38 58 96 -139 0
-37 -79 101 -139 0
-39 61 -105 -139 0
15 -50 -109 -139 0
37 -56 -98 139 0
-7 80 112 139 0
-1 68 -113 139 0
14 -49 88 -140 0
37 50 -93 -140 0
7 -74 -96 -140 0
-17 80 97 -140 0
-1 52 98 -140 0
-17 60 -103 -140 0
-16 72 115 -140 0
-4 -73 -88 140 0
8 -56 -89 140 0
18 75 109 140 0
-29 -65 119 140 0
-24 57 -86 -141 0
-4 -61 -90 -141 0
36 67 92 -141 0
-4 60 -100 -141 0
32 61 -118 -141 0
27 44 85 141 0
-29 -76 -90 141 0
27 -70 -96 141 0
-14 -62 -106 141 0
30 -78 111 141 0
24 55 -115 141 0
-14 -78 118 141 0
-31 80 120 141 0
34 73 -82 -142 0
-8 68 -91 -142 0
-7 -67 97 -142 0
40 -53 -86 142 0
-33 -43 94 142 0
-15 -64 -99 142 0
2 -61 100 142 0
6 75 -105 142 0
-10 55 -114 142 0
-19 50 -117 142 0
24 60 -82 -143 0
-21 -44 85 -143 0
9 -64 -87 -143 0
-28 75 89 -143 0
7 -71 92 -143 0
-29 -58 109 -143 0
-14 78 120 -143 0
-29 44 -81 143 0
2 77 83 143 0
-29 -70 84 143 0
-24 48 -85 143 0
-9 57 -86 143 0
-33 69 88 143 0
17 61 89 143 0
35 -54 -96 143 0
25 70 98 143 0
-26 -42 100 143 0
-33 49 -105 143 0
9 71 -105 143 0
40 68 105 143 0
35 50 -107 143 0
-36 48 -108 143 0
-34 -76 109 143 0
24 80 -87 -144 0
-38 -58 90 -144 0
16 77 98 -144 0
22 -66 -100 -144 0
9 -73 -101 -144 0
6 -65 -102 -144 0
22 72 102 -144 0
1 -56 -104 -144 0
-21 60 -104 -144 0
-6 74 105 -144 0
8 66 112 -144 0
20 -78 -83 144 0
-21 -52 92 144 0
-21 -63 93 144 0
19 -50 -94 144 0
-32 41 -96 144 0
37 52 -100 144 0
24 44 100 144 0
-30 48 -102 144 0
-6 51 112 144 0
10 -75 -114 144 0
-35 42 -96 -145 0
3 58 -108 -145 0
20 -49 109 -145 0
4 51 81 145 0
25 -66 -84 145 0
-10 69 84 145 0
-22 -43 -92 145 0
11 43 106 145 0
-11 51 119 145 0
27 43 -84 -146 0
-25 79 -85 -146 0
29 -65 85 -146 0
23 55 86 -146 0
-11 -43 91 -146 0
-40 58 91 -146 0
32 -60 -96 -146 0
-40 -53 -97 -146 0
-11 -59 98 -146 0
11 -50 110 -146 0
-40 -70 118 -146 0
-7 -58 96 146 0
21 55 99 146 0
-31 -70 -101 146 0
-29 -69 -109 146 0
40 50 109 146 0
-9 -76 -115 146 0
2 -77 -88 -147 0
16 48 90 -147 0
-40 -58 90 -147 0
13 44 92 -147 0
-19 -53 92 -147 0
5 45 100 -147 0
36 50 119 -147 0
1 -47 89 147 0
27 80 89 147 0
23 51 108 147 0
-40 -66 -113 147 0
6 61 115 147 0
31 63 -87 -148 0
-39 70 -100 -148 0
31 -58 108 -148 0
-19 77 -109 -148 0
25 -63 110 -148 0
-6 72 84 148 0
-18 -42 -87 148 0
-36 68 -108 148 0
9 -42 -109 148 0
-5 66 110 148 0
9 -41 -118 148 0
8 77 -120 148 0
-32 53 -83 -149 0
-3 -79 83 -149 0
35 54 91 -149 0
27 -60 92 -149 0
-5 52 -93 -149 0
-10 -51 98 -149 0
11 59 -120 -149 0
-26 62 84 149 0
6 -68 -89 149 0
17 74 104 149 0
-16 45 -107 149 0
-18 63 115 149 0
-36 70 -117 149 0
24 -67 -119 149 0
-18 69 -81 -150 0
19 60 86 -150 0
25 -63 90 -150 0
-2 -63 -94 -150 0
18 42 -95 -150 0
32 57 96 -150 0
-11 -53 104 -150 0
9 -70 106 -150 0
14 70 -107 -150 0
-25 75 -112 -150 0
-34 78 -120 -150 0
15 -59 85 150 0
-3 47 -88 150 0
28 66 -91 150 0
-21 -74 -96 150 0
32 65 97 150 0
-26 -41 -99 150 0
25 -46 102 150 0
-11 -61 -112 150 0
20 -44 -81 -151 0
-11 -48 -81 -151 0
40 56 -89 -151 0
29 73 90 -151 0
-3 -63 -95 151 0
33 -65 97 151 0
16 -61 110 151 0
27 -46 114 151 0
6 73 93 -152 0
13 48 95 -152 0
16 51 98 -152 0
15 -71 106 -152 0
-13 42 107 -152 0
-5 -43 -111 -152 0
4 -65 -115 -152 0
-22 43 -84 152 0
25 72 -84 152 0
25 -45 -104 152 0
7 -69 105 152 0
37 41 115 152 0
-27 64 116 152 0
6 55 81 -153 0
-23 -79 83 -153 0
-31 -45 -84 -153 0
-30 54 94 -153 0
-8 -58 89 153 0
-18 51 -91 153 0
30 -79 -91 153 0
-24 -47 -94 153 0
26 76 102 153 0
32 53 -106 153 0
6 46 -116 153 0
29 -49 -116 153 0
23 -44 -117 153 0
10 -77 81 -154 0
-23 79 84 -154 0
14 49 87 -154 0
-11 -56 92 -154 0
-24 -74 94 -154 0
-2 -51 116 -154 0
37 -63 -118 -154 0
6 73 84 154 0
29 -59 93 154 0
9 -49 98 154 0
24 47 -100 154 0
-17 49 117 154 0
-37 42 118 154 0
-7 59 119 154 0
10 42 91 -155 0
-11 67 94 -155 0
-7 -42 97 -155 0
40 42 -99 -155 0
-37 -41 102 -155 0
-11 -72 108 -155 0
-17 -60 -110 -155 0
34 78 111 -155 0
-28 -76 -113 -155 0
-7 80 116 -155 0
30 72 86 155 0
-6 -66 88 155 0
5 -76 -90 155 0
-14 62 -99 155 0
33 -68 -118 155 0
16 -44 -93 -156 0
4 61 99 -156 0
38 56 109 -156 0
14 -67 109 -156 0
-31 -61 -110 -156 0
8 -75 -111 -156 0
6 63 -116 -156 0
-32 -74 -116 -156 0
-15 -55 117 -156 0
12 -76 82 156 0
16 66 89 156 0
38 73 -93 156 0
-1 -71 -94 156 0
19 -53 102 156 0
30 -73 102 156 0
-5 -61 105 156 0
-18 -72 119 156 0
-30 73 120 156 0
29 -72 81 -157 0
-25 71 -92 -157 0
-18 55 -103 -157 0
36 -48 103 -157 0
14 -68 -106 -157 0
1 -48 -82 157 0
-21 46 83 157 0
-6 71 83 157 0
16 -74 88 157 0
-1 -59 94 157 0
18 72 99 157 0
-24 70 -113 157 0
-5 -71 -114 157 0
23 -48 -84 -158 0
-7 66 86 -158 0
-26 41 -88 -158 0
-1 -69 89 -158 0
-5 63 92 -158 0
14 -45 -93 -158 0
32 -72 93 -158 0
-12 57 -95 -158 0
-30 54 -96 -158 0
-6 -77 -97 -158 0
10 -77 -97 -158 0
-33 -77 -97 -158 0
37 60 103 -158 0
25 76 -107 -158 0
4 50 113 -158 0
-19 -79 85 158 0
4 -53 91 158 0
-10 61 -94 158 0
-27 78 -95 158 0
-21 -56 -107 158 0
-10 54 113 158 0
-36 -76 -114 158 0
-28 43 116 158 0
34 -42 -118 158 0
-23 55 83 -159 0
-15 -53 -85 -159 0
37 -45 91 -159 0
-30 54 95 -159 0
-2 60 97 -159 0
26 -67 -107 -159 0
-16 -76 -109 -159 0
-3 63 120 -159 0
27 -77 -85 159 0
26 71 90 159 0
-5 75 91 159 0
27 -67 -93 159 0
10 77 -97 159 0
26 -62 -101 159 0
31 76 105 159 0
-4 -73 107 159 0
21 -67 -110 159 0
-17 -49 -118 159 0
-32 56 -100 -160 0
9 48 -103 -160 0
-32 53 -112 -160 0
16 47 113 -160 0
-3 -42 -114 -160 0
-31 -54 -117 -160 0
31 52 -81 160 0
17 62 86 160 0
20 -41 -89 160 0
30 -48 -92 160 0
28 -76 -93 160 0
19 -61 93 160 0
7 51 96 160 0
-40 58 97 160 0
13 -78 -101 160 0
-17 -53 102 160 0
33 46 108 160 0
13 -46 114 160 0
28 -43 -116 160 0
36 72 120 160 0
